Route #1: 1 50 74 37 67 68 71 54 52 78 4 34 1
Route #2: 1 14 43 40 61 30 75 32 1
Route #3: 1 41 22 8 2 11 72 15 1
Route #4: 1 65 47 26 42 21 76 44 17 62 79 28 1
Route #5: 1 59 39 73 51 46 23 33 1
Route #6: 1 13 45 6 24 63 64 35 25 1
Route #7: 1 77 55 10 56 57 70 66 36 27 20 48 16 5 1
Route #8: 1 3 38 9 69 58 60 1
Route #9: 1 29 53 12 80 49 19 1
Route #10: 1 7 31 18 1
cost 2126.470508524141
